#ethylene geometry from CRC Handbook 102nd Edition
$molecule
-1 1
C        -0.6645000000    0.0000000000   -0.1764707059
C         0.6645000000    0.0000000000   -0.1764707059
H        -1.1590800000    0.0000000000    0.7858782941
H         1.1590800000    0.0000000000    0.7858782941
H        -1.1590800000    0.0000000000   -1.1388187059
H         1.1590800000    0.0000000000   -1.1388187059
H         0.0000000000    0.0000000000    2.8235292941
$end

$rem
   METHOD hf
   BASIS sto-3g
   MAKE_CUBE_FILES    true
$end

$plots
   Plot the HOMO and the LUMO on a line
  200  -3.0   3.0
  200  -3.0   3.0
  400  -3.0   6.0
   1   0   0   0
   9   
$end
