#ethylene geometry from CRC Handbook 102nd Edition
$molecule
0 2
O         0.0000000000    0.0000000000   -1.5841414040
H         0.0000000000    0.0000000000   -2.5471307683
$end

$rem
   METHOD hf
   BASIS sto-3g
symmetry FALSE
$end

