$molecule
READ
$end

$rem
   METHOD adc(2)
   SCF_GUESS READ
   BASIS aug-cc-pvtz
   EE_STATES 12
   ADC_DAVIDSON_MAXITER 120
   ADC_DAVIDSON_MAXSUBSPACE 84
   ADC_DO_DIIS TRUE
   MEM_TOTAL 95000
   STATE_ANALYSIS TRUE
$end