$molecule
0 2
C       0.6645000000    -0.0000000000    -0.0000000000
C      -0.6645000000     0.0000000000     0.0000000000
H       1.1590799571     0.9623485159     0.0000000000
H       1.1590799571    -0.9623485159    -0.0000000000
H      -1.1590799571    -0.9623485159    -0.0000000000
H      -1.1590799571     0.9623485159     0.0000000000
H       0.0              10.0              0.0
$end

$rem
   METHOD HF
   BASIS gen
   PURECART 11
$end

$basis
H     0
aug-cc-pvtz
****
C     0
S   10   1.00
      8.236000D+03           5.310000D-04
      1.235000D+03           4.108000D-03
      2.808000D+02           2.108700D-02
      7.927000D+01           8.185300D-02
      2.559000D+01           2.348170D-01
      8.997000D+00           4.344010D-01
      3.319000D+00           3.461290D-01
      9.059000D-01           3.937800D-02
      3.643000D-01          -8.983000D-03
      1.285000D-01           2.385000D-03
S   1   1.00
      9.059000D-01           1.000000D+00
S   10   1.00
      8.236000D+03          -1.130000D-04
      1.235000D+03          -8.780000D-04
      2.808000D+02          -4.540000D-03
      7.927000D+01          -1.813300D-02
      2.559000D+01          -5.576000D-02
      8.997000D+00          -1.268950D-01
      3.319000D+00          -1.703520D-01
      9.059000D-01           1.403820D-01
      3.643000D-01           5.986840D-01
      1.285000D-01           3.953890D-01
S   1   1.00
      1.285000D-01           1.000000D+00
S   1   1.00
      0.0440200              1.0000000
P   1   1.00
      3.827000D-01           1.000000D+00
P   1   1.00
      0.0079311      1.0000000
P   1   1.00
      0.0039656      1.0000000
P   1   1.00
      0.0019828      1.0000000
P   1   1.00 
      0.0009914      1.0000000
P   5   1.00
      1.871000D+01           1.403100D-02
      4.133000D+00           8.686600D-02
      1.200000D+00           2.902160D-01
      3.827000D-01           5.010080D-01
      1.209000D-01           3.434060D-01
P   1   1.00
      1.209000D-01           1.000000D+00
P   1   1.00
      0.0356900              1.0000000
D   1   1.00
      1.097000D+00           1.000000D+00
D   1   1.00
      3.180000D-01           1.000000D+00
D   1   1.00
      0.1000000              1.0000000
F   1   1.00
      7.610000D-01           1.0000000
F   1   1.00
      0.2680000              1.0000000
****
$end
