$molecule
0 2
O         0.0000000000    0.0000000000    3.792
H         0.0000000000    0.0000000000    4.792
$end

$rem
   JOBTYPE opt
   METHOD MP2
   BASIS gen
   PURECART 11
   THRESH 14
   S2THRESH 14
   THREADS 4
   MEM_TOTAL 95000
$end
$basis
H     0
cc-pvtz
****
O     0
aug-cc-pvtz
****
$end
