$molecule
0 1
  C   -1.9245209    0.1570113    0.0000000
  C   -2.0715861   -1.1762190    0.0000000
  C   -0.8810846   -2.0556690    0.0000000
  C    0.4724811   -1.4568484    0.0000000
  C    0.6195463   -0.1236181    0.0000000
  C   -0.5709552    0.7558319    0.0000000
  O   -0.4372460    1.9679828    0.0000000
  O   -1.0147938   -3.2678199    0.0000000
$end

$rem
   BASIS  =  cc-pVTZ
   JOB_TYPE  =  Optimization
   METHOD  =  MP2
   SCF_CONVERGENCE  =  8
   threads 10
$end
