$molecule
0 1
C       0.6706584454    -1.2797490689    -0.0000000000
C      -0.6706584454    -1.2797490689     0.0000000000
C      -1.4142769845    -0.0000000016    -0.0000000000
C      -0.6706584454     1.2797490689     0.0000000000
C       0.6706584454     1.2797490689     0.0000000000
C       1.4142769845     0.0000000016     0.0000000000
O       2.6337801434     0.0000000000     0.0000000000
O      -2.6337801434     0.0000000307    -0.0000000000
$end

$rem
   BASIS cc-pVTZ
   JOBTYPE opt
   METHOD MP2
   SCF_CONVERGENCE  =  8
   threads 10
$end
