#ethylene geometry from CRC Handbook 102nd Edition
$molecule
   0 1
C         0.6235257508   -1.1565321456    0.0000000000
C        -0.6235257508   -1.1565321456    0.0000000000
C        -1.5818166948    0.0000000000    0.0000000000
C        -0.6235257508    1.1565321456    0.0000000000
C         0.6235257508    1.1565321456    0.0000000000
C         1.5818166948    0.0000000000    0.0000000000
O         2.7810421212    0.0000000000    0.0000000000
O        -2.7810421212    0.0000000000    0.0000000000
$end

$rem
   METHOD mp2
   BASIS sto-3g
$end

